language ESSENCE' 1.0
$ Minion SolverNodes: 54
$ Minion SolverTotalTime: 0.009502
$ Minion SolverTimeOut: 0
$ Savile Row TotalTime: 0.546
letting M be [[50, 9, 45, 18, 5, 44, 46, 7], 
[50, 5, 45, 18, 44, 46, 7, -1], 
[50, 5, 45, 44, 46, 7, -1, -1], 
[44, 5, 45, 46, 7, -1, -1, -1], 
[5, 45, 46, 7, -1, -1, -1, -1], 
[5, 46, 7, -1, -1, -1, -1, -1], 
[5, 7, -1, -1, -1, -1, -1, -1], 
[7, -1, -1, -1, -1, -1, -1, -1]]
